70
125
86	2
85	2
84	4
83	2
82	3
80	3
79	4
78	4
77	1
76	2
75	6
74	2
73	3
72	6
71	2
70	2
69	8
68	3
67	3
66	3
65	4
64	1
63	2
62	4
61	4
60	2
59	4
58	2
57	2
56	3
55	1
54	2
53	1
52	3
51	6
50	1
49	1
48	2
46	3
45	4
44	1
43	4
42	1
41	3
39	2
38	4
37	2
36	3
35	5
34	1
33	2
32	1
30	4
29	1
28	6
27	4
26	3
25	3
24	5
23	2
22	4
21	5
20	2
18	1
17	1
16	2
15	1
14	4
13	1
12	5
